c 11_win_checker.cnf
c
c field = 11
c formula set type = win_checker
c
p cnf 5 24
12 
14 
16 
18 
-10 
13 
15 
17 
19 
-11 
12 
14 
16 
18 
-22 
13 
15 
17 
19 
-23 
14 
16 
18 
22 
-12 
15 
17 
19 
23 
-13 
14 
16 
18 
22 
-24 
15 
17 
19 
23 
-25 
16 
18 
22 
24 
-14 
17 
19 
23 
25 
-15 
16 
18 
22 
24 
-26 
17 
19 
23 
25 
-27 
18 
22 
24 
26 
-16 
19 
23 
25 
27 
-17 
18 
22 
24 
26 
-28 
19 
23 
25 
27 
-29 
22 
24 
26 
28 
-18 
23 
25 
27 
29 
-19 
50 
80 
110 
140 
-170 
51 
81 
111 
141 
-171 
52 
84 
116 
148 
-20 
53 
85 
117 
149 
-21 
48 
76 
104 
132 
-160 
49 
77 
105 
133 
-161 
